PROBLEM NAME: eil51_n8
KNAPSACK DATA TYPE: uncorrelated
DIMENSION: 8
NUMBER OF ITEMS: 7
CAPACITY OF KNAPSACK: 4672
MIN SPEED: 0.1
MAX SPEED: 1
RENTING RATIO: 7.74
EDGE_WEIGHT_TYPE: CEIL_2D
NODE_COORD_SECTION	(INDEX, X, Y):
1	52	64
2	57	58
3	16	57
4	27	68
5	58	48
6	10	17
7	39	10
8	48	28
ITEMS SECTION	(INDEX, PROFIT, WEIGHT, ASSIGNED NODE NUMBER):
1	808	906	4
2	727	724	3
3	710	416	6
4	434	925	7
5	281	930	8
6	218	428	5
7	212	811	2
